data/rand/rand_093.gr
p tdp 15 67
1 3
1 5
1 6
1 7
1 8
1 10
1 12
1 13
1 14
1 15
2 4
2 5
2 8
2 9
2 10
2 12
2 14
2 15
3 5
3 8
3 9
3 10
3 11
3 13
3 14
3 15
4 5
4 6
4 8
4 9
4 10
4 13
4 14
5 11
5 13
5 14
6 9
6 10
6 11
6 13
6 14
6 15
7 8
7 10
7 11
7 13
7 14
7 15
8 9
8 10
8 11
8 12
8 13
8 14
8 15
9 11
9 13
9 14
9 15
10 14
10 15
11 12
11 14
11 15
12 13
12 14
12 15
