solutions/best/rand/rand_093.sol
12
0
1
11
2
4
11
11
5
8
9
15
11
10
13
14
